\ Model idol-model
\ LP format - for model browsing. Use MPS format to capture full model detail.
\ Signature: 0xc27655aa393e3d3f
Minimize
  276 C0000000 + 398 C0000001 + 420 C0000002 + 999 C0000003 + 20 C0000004
   + 415 C0000005 + 938 C0000006 + 424 C0000007 + 627 C0000008
   + 496 C0000009 + 985 C0000010 + 994 C0000011 + 207 C0000012
   + 635 C0000013 + 823 C0000014 + 20 C0000015 + 341 C0000016
   + 838 C0000017 + 949 C0000018 + 532 C0000019 + 503 C0000020
   + 386 C0000021 + 361 C0000022 + 144 C0000023 + 210 C0000024
   + 481 C0000025 + 250 C0000026 + 193 C0000027 + 376 C0000028
   + 98 C0000029
Subject To
 R0000000: 146 C0000000 + 217 C0000001 + 930 C0000002 + 17 C0000003
   + 400 C0000004 + 419 C0000005 + 888 C0000006 + 73 C0000007
   + 610 C0000008 + 673 C0000009 + 896 C0000010 + 450 C0000011
   + 608 C0000012 + 874 C0000013 + 72 C0000014 + 458 C0000015
   + 969 C0000016 + 912 C0000017 + 314 C0000018 + 672 C0000019
   + 74 C0000020 + 416 C0000021 + 226 C0000022 + 361 C0000023 + 16 C0000024
   + 875 C0000025 + 150 C0000026 + 965 C0000027 + 534 C0000028
   + 365 C0000029 <= 7290
 IC0: C0000000 + x0 <= 1
 IC1: C0000001 + x1 <= 1
 IC2: C0000002 + x2 <= 1
 IC3: C0000003 + x3 <= 1
 IC4: C0000004 + x4 <= 1
 IC5: C0000005 + x5 <= 1
 IC6: C0000006 + x6 <= 1
 IC7: C0000007 + x7 <= 1
 IC8: C0000008 + x8 <= 1
 IC9: C0000009 + x9 <= 1
 IC10: C0000010 + x10 <= 1
 IC11: C0000011 + x11 <= 1
 IC12: C0000012 + x12 <= 1
 IC13: C0000013 + x13 <= 1
 IC14: C0000014 + x14 <= 1
 IC15: C0000015 + x15 <= 1
 IC16: C0000016 + x16 <= 1
 IC17: C0000017 + x17 <= 1
 IC18: C0000018 + x18 <= 1
 IC19: C0000019 + x19 <= 1
 IC20: C0000020 + x20 <= 1
 IC21: C0000021 + x21 <= 1
 IC22: C0000022 + x22 <= 1
 IC23: C0000023 + x23 <= 1
 IC24: C0000024 + x24 <= 1
 IC25: C0000025 + x25 <= 1
 IC26: C0000026 + x26 <= 1
 IC27: C0000027 + x27 <= 1
 IC28: C0000028 + x28 <= 1
 IC29: C0000029 + x29 <= 1
 interdictionBudget: 414 x0 + 195 x1 + 568 x2 + 665 x3 + 762 x4 + 433 x5
   + 664 x6 + 739 x7 + 64 x8 + 49 x9 + 289 x10 + 433 x11 + 905 x12
   + 170 x13 + 327 x14 + 836 x15 + 893 x16 + 38 x17 + 69 x18 + 718 x19
   + 789 x20 + 558 x21 + 443 x22 + 119 x23 + 268 x24 + 967 x25 + 188 x26
   + 749 x27 + 501 x28 + 813 x29 <= 7313
 c_122: - 276 C0000000 - 398 C0000001 - 420 C0000002 - 999 C0000003
   - 20 C0000004 - 415 C0000005 - 938 C0000006 - 424 C0000007
   - 627 C0000008 - 496 C0000009 - 985 C0000010 - 994 C0000011
   - 207 C0000012 - 635 C0000013 - 823 C0000014 - 20 C0000015
   - 341 C0000016 - 838 C0000017 - 949 C0000018 - 532 C0000019
   - 503 C0000020 - 386 C0000021 - 361 C0000022 - 144 C0000023
   - 210 C0000024 - 481 C0000025 - 250 C0000026 - 193 C0000027
   - 376 C0000028 - 98 C0000029 <= 0
Bounds
Binaries
 C0000000 C0000001 C0000002 C0000003 C0000004 C0000005 C0000006 C0000007
 C0000008 C0000009 C0000010 C0000011 C0000012 C0000013 C0000014 C0000015
 C0000016 C0000017 C0000018 C0000019 C0000020 C0000021 C0000022 C0000023
 C0000024 C0000025 C0000026 C0000027 C0000028 C0000029 x0 x1 x2 x3 x4 x5 x6
 x7 x8 x9 x10 x11 x12 x13 x14 x15 x16 x17 x18 x19 x20 x21 x22 x23 x24 x25
 x26 x27 x28 x29
End
